
Gurobi 6.5.2 (win64) logging started 07/23/16 02:59:40


Gurobi 6.5.2 (win64) logging started 07/23/16 02:59:40

Optimize a model with 21112 rows, 1426 columns and 45969 nonzeros
Coefficient statistics:
  Matrix range    [4e-06, 1e+03]
  Objective range [1e+00, 1e+00]
  Bounds range    [1e+00, 1e+00]
  RHS range       [1e+00, 1e+03]
Found heuristic solution: objective 3868.9
Presolve removed 21086 rows and 1399 columns
Presolve time: 0.01s
Presolved: 26 rows, 27 columns, 80 nonzeros
Variable types: 27 continuous, 0 integer (0 binary)

Root relaxation: objective 2.058160e+02, 19 iterations, 0.00 seconds

    Nodes    |    Current Node    |     Objective Bounds      |     Work
 Expl Unexpl |  Obj  Depth IntInf | Incumbent    BestBd   Gap | It/Node Time

*    0     0               0     205.8159728  205.81597  0.00%     -    0s

Explored 0 nodes (19 simplex iterations) in 0.02 seconds
Thread count was 8 (of 8 available processors)

Optimal solution found (tolerance 1.00e-04)
Best objective 2.058159728271e+02, best bound 2.058159728271e+02, gap 0.0%

Wrote requested result file 'H2\instance17\\Results17EC_Sol6.lp'

